%%% static parameters %%%
timespan = 1;
Clients_N = [1000];
Demand_W = [15];
Lt0 = [4];
Lt1 = [4];
SS_ = [0.85];
DS_D = [20];
K = [200];
MA = [500];
HC = [0.05];
%%% dynamic parameters %%%
lost_ratio_sales_ret_th = 0.008492841641732666;
lost_ratio_sales_ret_w = 4;
lost_ratio_sales_dis_th = 0.0054033677985901385;
lost_ratio_sales_dis_w = 89;
lost_ratio_sales_fac_th = 0.0052375123024570956;
lost_ratio_sales_fac_w = 46;
stock_customer_MA_mean_relative_th = 0.9494279751822161;
stock_customer_MA_mean_relative_w = 8;
stock_distributor_MA_mean_relative_th = 0.7637152311687107;
stock_distributor_MA_mean_relative_w = 19;
stock_retailer_MA_mean_relative_th = 0.5256845241986974;
stock_retailer_MA_mean_relative_w = 66;
stock_factory_MA_mean_relative_th = 0.6811227123532362;
stock_factory_MA_mean_relative_w = 76;
